Route 1: 69 98 88 53 82 99 65 90 66 56 91 80
Route 2: 92 71 93 94 81 61 70 100 55 68
Route 3: 64 95 62 67 54 41 72 96
Route 4: 52 86 87 59 74 57 83 24
Route 5: 51 76 89 63 85 84 50
Route 6: 13 9 11 12 14 47 17 78 60
Route 7: 7 6 8 46 45 5 3 4 2 1
Route 8: 79 73 16 15 10
Route 9: 38 39 36 35 37 40 43 44 42
Route 10: 23 48 18 20 49 19 22 21 25
Route 11: 33 32 30 28 26 27 29 31 34
Route 12: 77 58 75 97
Vehicles: 12
Distance: 1422.04
